11
0 29 3 9 54 60 4 26 81 69 74 
29 0 85 4 81 79 87 90 17 51 83 
16 43 0 21 21 94 88 4 11 73 28 
57 25 73 0 11 39 89 15 11 29 16 
26 80 10 64 0 88 78 55 89 40 11 
74 94 89 12 54 0 23 42 45 35 68 
20 51 7 55 63 58 0 65 22 29 39 
37 32 87 51 8 53 61 0 8 6 44 
64 24 61 52 26 88 80 10 0 61 87 
32 46 32 7 45 94 35 27 48 0 23 
17 34 7 87 59 46 37 7 42 36 0 
